09-routing/solutions/XSH-n20-k4-34.opt.sol
Route #1: 13 2 8 14 9 4
Route #2: 19 18 7 17
Route #3: 5 10 12 3 20
Route #4: 1 15 11 6 16
Cost 891
